water_flow/馬谷さん　卒論/数値実験/60_water_settikaisi/settikaisi_50/waterstop_before50.txt
x(15728,0,a) 1
x(15728,0,b) 1
x(15728,0,c) 1
x(15728,0,d) 1
x(15728,0,e) 1
x(15728,0,f) 1

x(6679,1,a)  1
x(14140,1,b) 1
x(32746,1,c) 1
x(6205,1,d)  1
x(18089,1,e) 1
x(15728,1,f) 1

x(7671,2,a)  1
x(8169,2,b)  1
x(23295,2,c) 1
x(4646,2,d)  1
x(28619,2,e) 1
x(8236,2,f)  1

x(6686,3,a   1
x(8643,3,b)  1
x(7823,3,c)  1
x(24352,3,e) 1
x(23411,3,f) 1

x(11087,4,a) 1
x(1592,4,b)  1
x(23742,4,f) 1

x(10635,5,a) 1
x(1823,5,b)  1

x(24027,6,a) 1
x(8211,6,b)  1


                                               設置時間(+3)
(1,c)[15728	32746]	1482 /66=22.4545         25.4545

25.4545-(74-50)=1.4545
